(set-logic QF_LIA)
(set-info :smt-lib-version 2.0)
(declare-fun rho_1 () Int)
(declare-fun rho_2 () Int)
(declare-fun phi_1 () Bool)
(declare-fun phi_2 () Bool)
(declare-fun oliid3 () Int)
(declare-fun warehouseid () Int)
(declare-fun oliidGV3 () Int)
(declare-fun warehouseidGV () Int)
(assert (= rho_1 (+ (* warehouseid 100000) oliid3)))
(assert (= rho_2 (+ (* warehouseidGV 100000) oliidGV3)))
(assert (= phi_1 (and (>= oliid3 0) (< oliid3 100000)(>= warehouseid 0) (< warehouseid 1))))
(assert (= phi_2 (and (>= oliidGV3 0) (< oliidGV3 100000)(>= warehouseidGV 1) (< warehouseidGV 2))))
(assert (and (= rho_1 rho_2) (and phi_1 phi_2)))
(check-sat)
(exit)